N = 13;
H = 5;
T = 2;

avail = array3d(1..N, 1..H, 1..T, [4, 6, 2, 6, 10, 0, 7, 9, 10, 10, 5, 8, 1, 3, 8, 2, 1, 2, 1, 7, 4, 5, 7, 4, 4, 8, 4, 10, 4, 10, 1, 7, 8, 9, 10, 1, 1, 9, 2, 6, 4, 7, 4, 9, 6, 1, 6, 8, 5, 3, 0, 7, 6, 1, 9, 7, 7, 1, 8, 7, 2, 9, 6, 8, 3, 7, 4, 1, 7, 0, 3, 4, 9, 2, 3, 0, 6, 3, 3, 4, 8, 7, 4, 2, 3, 1, 3, 0, 7, 5, 1, 7, 10, 0, 6, 3, 2, 7, 6, 10, 4, 5, 1, 10, 0, 10, 8, 2, 4, 4, 6, 8, 6, 8, 1, 1, 4, 10, 0, 9, 9, 3, 4, 1, 0, 5, 4, 7, 7, 7]);

r = array2d(1..H, 1..T, [1, 3, 0, 2, 7, 3, 3, 3, 5, 4]);
